p cnf 30412 816
10101 10102 10103 10104 10105 10106 10107 10108 10109 10110 10111 10112 0
10201 10202 10203 10204 10205 10206 10207 10208 10209 10210 10211 10212 0
10301 10302 10303 10304 10305 10306 10307 10308 10309 10310 10311 10312 0
10401 10402 10403 10404 10405 10406 10407 10408 10409 10410 10411 10412 0
20101 20102 20103 20104 20105 20106 20107 20108 20109 20110 20111 20112 0
20201 20202 20203 20204 20205 20206 20207 20208 20209 20210 20211 20212 0
20301 20302 20303 20304 20305 20306 20307 20308 20309 20310 20311 20312 0
20401 20402 20403 20404 20405 20406 20407 20408 20409 20410 20411 20412 0
30101 30102 30103 30104 30105 30106 30107 30108 30109 30110 30111 30112 0
30201 30202 30203 30204 30205 30206 30207 30208 30209 30210 30211 30212 0
30301 30302 30303 30304 30305 30306 30307 30308 30309 30310 30311 30312 0
30401 30402 30403 30404 30405 30406 30407 30408 30409 30410 30411 30412 0
10101 10201 10301 10401 0
10102 10202 10302 10402 0
10103 10203 10303 10403 0
10104 10204 10304 10404 0
20105 20205 20305 20405 0
20106 20206 20306 20406 0
20107 20207 20307 20407 0
20108 20208 20308 20408 0
30109 30209 30309 30409 0
30110 30210 30310 30410 0
30111 30211 30311 30411 0
30112 30212 30312 30412 0
-10101 -10102 0
-10101 -10103 0
-10101 -10104 0
-10101 -10105 0
-10101 -10106 0
-10101 -10107 0
-10101 -10108 0
-10101 -10109 0
-10101 -10110 0
-10101 -10111 0
-10101 -10112 0
-10102 -10103 0
-10102 -10104 0
-10102 -10105 0
-10102 -10106 0
-10102 -10107 0
-10102 -10108 0
-10102 -10109 0
-10102 -10110 0
-10102 -10111 0
-10102 -10112 0
-10103 -10104 0
-10103 -10105 0
-10103 -10106 0
-10103 -10107 0
-10103 -10108 0
-10103 -10109 0
-10103 -10110 0
-10103 -10111 0
-10103 -10112 0
-10104 -10105 0
-10104 -10106 0
-10104 -10107 0
-10104 -10108 0
-10104 -10109 0
-10104 -10110 0
-10104 -10111 0
-10104 -10112 0
-10105 -10106 0
-10105 -10107 0
-10105 -10108 0
-10105 -10109 0
-10105 -10110 0
-10105 -10111 0
-10105 -10112 0
-10106 -10107 0
-10106 -10108 0
-10106 -10109 0
-10106 -10110 0
-10106 -10111 0
-10106 -10112 0
-10107 -10108 0
-10107 -10109 0
-10107 -10110 0
-10107 -10111 0
-10107 -10112 0
-10108 -10109 0
-10108 -10110 0
-10108 -10111 0
-10108 -10112 0
-10109 -10110 0
-10109 -10111 0
-10109 -10112 0
-10110 -10111 0
-10110 -10112 0
-10111 -10112 0
-10201 -10202 0
-10201 -10203 0
-10201 -10204 0
-10201 -10205 0
-10201 -10206 0
-10201 -10207 0
-10201 -10208 0
-10201 -10209 0
-10201 -10210 0
-10201 -10211 0
-10201 -10212 0
-10202 -10203 0
-10202 -10204 0
-10202 -10205 0
-10202 -10206 0
-10202 -10207 0
-10202 -10208 0
-10202 -10209 0
-10202 -10210 0
-10202 -10211 0
-10202 -10212 0
-10203 -10204 0
-10203 -10205 0
-10203 -10206 0
-10203 -10207 0
-10203 -10208 0
-10203 -10209 0
-10203 -10210 0
-10203 -10211 0
-10203 -10212 0
-10204 -10205 0
-10204 -10206 0
-10204 -10207 0
-10204 -10208 0
-10204 -10209 0
-10204 -10210 0
-10204 -10211 0
-10204 -10212 0
-10205 -10206 0
-10205 -10207 0
-10205 -10208 0
-10205 -10209 0
-10205 -10210 0
-10205 -10211 0
-10205 -10212 0
-10206 -10207 0
-10206 -10208 0
-10206 -10209 0
-10206 -10210 0
-10206 -10211 0
-10206 -10212 0
-10207 -10208 0
-10207 -10209 0
-10207 -10210 0
-10207 -10211 0
-10207 -10212 0
-10208 -10209 0
-10208 -10210 0
-10208 -10211 0
-10208 -10212 0
-10209 -10210 0
-10209 -10211 0
-10209 -10212 0
-10210 -10211 0
-10210 -10212 0
-10211 -10212 0
-10301 -10302 0
-10301 -10303 0
-10301 -10304 0
-10301 -10305 0
-10301 -10306 0
-10301 -10307 0
-10301 -10308 0
-10301 -10309 0
-10301 -10310 0
-10301 -10311 0
-10301 -10312 0
-10302 -10303 0
-10302 -10304 0
-10302 -10305 0
-10302 -10306 0
-10302 -10307 0
-10302 -10308 0
-10302 -10309 0
-10302 -10310 0
-10302 -10311 0
-10302 -10312 0
-10303 -10304 0
-10303 -10305 0
-10303 -10306 0
-10303 -10307 0
-10303 -10308 0
-10303 -10309 0
-10303 -10310 0
-10303 -10311 0
-10303 -10312 0
-10304 -10305 0
-10304 -10306 0
-10304 -10307 0
-10304 -10308 0
-10304 -10309 0
-10304 -10310 0
-10304 -10311 0
-10304 -10312 0
-10305 -10306 0
-10305 -10307 0
-10305 -10308 0
-10305 -10309 0
-10305 -10310 0
-10305 -10311 0
-10305 -10312 0
-10306 -10307 0
-10306 -10308 0
-10306 -10309 0
-10306 -10310 0
-10306 -10311 0
-10306 -10312 0
-10307 -10308 0
-10307 -10309 0
-10307 -10310 0
-10307 -10311 0
-10307 -10312 0
-10308 -10309 0
-10308 -10310 0
-10308 -10311 0
-10308 -10312 0
-10309 -10310 0
-10309 -10311 0
-10309 -10312 0
-10310 -10311 0
-10310 -10312 0
-10311 -10312 0
-10401 -10402 0
-10401 -10403 0
-10401 -10404 0
-10401 -10405 0
-10401 -10406 0
-10401 -10407 0
-10401 -10408 0
-10401 -10409 0
-10401 -10410 0
-10401 -10411 0
-10401 -10412 0
-10402 -10403 0
-10402 -10404 0
-10402 -10405 0
-10402 -10406 0
-10402 -10407 0
-10402 -10408 0
-10402 -10409 0
-10402 -10410 0
-10402 -10411 0
-10402 -10412 0
-10403 -10404 0
-10403 -10405 0
-10403 -10406 0
-10403 -10407 0
-10403 -10408 0
-10403 -10409 0
-10403 -10410 0
-10403 -10411 0
-10403 -10412 0
-10404 -10405 0
-10404 -10406 0
-10404 -10407 0
-10404 -10408 0
-10404 -10409 0
-10404 -10410 0
-10404 -10411 0
-10404 -10412 0
-10405 -10406 0
-10405 -10407 0
-10405 -10408 0
-10405 -10409 0
-10405 -10410 0
-10405 -10411 0
-10405 -10412 0
-10406 -10407 0
-10406 -10408 0
-10406 -10409 0
-10406 -10410 0
-10406 -10411 0
-10406 -10412 0
-10407 -10408 0
-10407 -10409 0
-10407 -10410 0
-10407 -10411 0
-10407 -10412 0
-10408 -10409 0
-10408 -10410 0
-10408 -10411 0
-10408 -10412 0
-10409 -10410 0
-10409 -10411 0
-10409 -10412 0
-10410 -10411 0
-10410 -10412 0
-10411 -10412 0
-20101 -20102 0
-20101 -20103 0
-20101 -20104 0
-20101 -20105 0
-20101 -20106 0
-20101 -20107 0
-20101 -20108 0
-20101 -20109 0
-20101 -20110 0
-20101 -20111 0
-20101 -20112 0
-20102 -20103 0
-20102 -20104 0
-20102 -20105 0
-20102 -20106 0
-20102 -20107 0
-20102 -20108 0
-20102 -20109 0
-20102 -20110 0
-20102 -20111 0
-20102 -20112 0
-20103 -20104 0
-20103 -20105 0
-20103 -20106 0
-20103 -20107 0
-20103 -20108 0
-20103 -20109 0
-20103 -20110 0
-20103 -20111 0
-20103 -20112 0
-20104 -20105 0
-20104 -20106 0
-20104 -20107 0
-20104 -20108 0
-20104 -20109 0
-20104 -20110 0
-20104 -20111 0
-20104 -20112 0
-20105 -20106 0
-20105 -20107 0
-20105 -20108 0
-20105 -20109 0
-20105 -20110 0
-20105 -20111 0
-20105 -20112 0
-20106 -20107 0
-20106 -20108 0
-20106 -20109 0
-20106 -20110 0
-20106 -20111 0
-20106 -20112 0
-20107 -20108 0
-20107 -20109 0
-20107 -20110 0
-20107 -20111 0
-20107 -20112 0
-20108 -20109 0
-20108 -20110 0
-20108 -20111 0
-20108 -20112 0
-20109 -20110 0
-20109 -20111 0
-20109 -20112 0
-20110 -20111 0
-20110 -20112 0
-20111 -20112 0
-20201 -20202 0
-20201 -20203 0
-20201 -20204 0
-20201 -20205 0
-20201 -20206 0
-20201 -20207 0
-20201 -20208 0
-20201 -20209 0
-20201 -20210 0
-20201 -20211 0
-20201 -20212 0
-20202 -20203 0
-20202 -20204 0
-20202 -20205 0
-20202 -20206 0
-20202 -20207 0
-20202 -20208 0
-20202 -20209 0
-20202 -20210 0
-20202 -20211 0
-20202 -20212 0
-20203 -20204 0
-20203 -20205 0
-20203 -20206 0
-20203 -20207 0
-20203 -20208 0
-20203 -20209 0
-20203 -20210 0
-20203 -20211 0
-20203 -20212 0
-20204 -20205 0
-20204 -20206 0
-20204 -20207 0
-20204 -20208 0
-20204 -20209 0
-20204 -20210 0
-20204 -20211 0
-20204 -20212 0
-20205 -20206 0
-20205 -20207 0
-20205 -20208 0
-20205 -20209 0
-20205 -20210 0
-20205 -20211 0
-20205 -20212 0
-20206 -20207 0
-20206 -20208 0
-20206 -20209 0
-20206 -20210 0
-20206 -20211 0
-20206 -20212 0
-20207 -20208 0
-20207 -20209 0
-20207 -20210 0
-20207 -20211 0
-20207 -20212 0
-20208 -20209 0
-20208 -20210 0
-20208 -20211 0
-20208 -20212 0
-20209 -20210 0
-20209 -20211 0
-20209 -20212 0
-20210 -20211 0
-20210 -20212 0
-20211 -20212 0
-20301 -20302 0
-20301 -20303 0
-20301 -20304 0
-20301 -20305 0
-20301 -20306 0
-20301 -20307 0
-20301 -20308 0
-20301 -20309 0
-20301 -20310 0
-20301 -20311 0
-20301 -20312 0
-20302 -20303 0
-20302 -20304 0
-20302 -20305 0
-20302 -20306 0
-20302 -20307 0
-20302 -20308 0
-20302 -20309 0
-20302 -20310 0
-20302 -20311 0
-20302 -20312 0
-20303 -20304 0
-20303 -20305 0
-20303 -20306 0
-20303 -20307 0
-20303 -20308 0
-20303 -20309 0
-20303 -20310 0
-20303 -20311 0
-20303 -20312 0
-20304 -20305 0
-20304 -20306 0
-20304 -20307 0
-20304 -20308 0
-20304 -20309 0
-20304 -20310 0
-20304 -20311 0
-20304 -20312 0
-20305 -20306 0
-20305 -20307 0
-20305 -20308 0
-20305 -20309 0
-20305 -20310 0
-20305 -20311 0
-20305 -20312 0
-20306 -20307 0
-20306 -20308 0
-20306 -20309 0
-20306 -20310 0
-20306 -20311 0
-20306 -20312 0
-20307 -20308 0
-20307 -20309 0
-20307 -20310 0
-20307 -20311 0
-20307 -20312 0
-20308 -20309 0
-20308 -20310 0
-20308 -20311 0
-20308 -20312 0
-20309 -20310 0
-20309 -20311 0
-20309 -20312 0
-20310 -20311 0
-20310 -20312 0
-20311 -20312 0
-20401 -20402 0
-20401 -20403 0
-20401 -20404 0
-20401 -20405 0
-20401 -20406 0
-20401 -20407 0
-20401 -20408 0
-20401 -20409 0
-20401 -20410 0
-20401 -20411 0
-20401 -20412 0
-20402 -20403 0
-20402 -20404 0
-20402 -20405 0
-20402 -20406 0
-20402 -20407 0
-20402 -20408 0
-20402 -20409 0
-20402 -20410 0
-20402 -20411 0
-20402 -20412 0
-20403 -20404 0
-20403 -20405 0
-20403 -20406 0
-20403 -20407 0
-20403 -20408 0
-20403 -20409 0
-20403 -20410 0
-20403 -20411 0
-20403 -20412 0
-20404 -20405 0
-20404 -20406 0
-20404 -20407 0
-20404 -20408 0
-20404 -20409 0
-20404 -20410 0
-20404 -20411 0
-20404 -20412 0
-20405 -20406 0
-20405 -20407 0
-20405 -20408 0
-20405 -20409 0
-20405 -20410 0
-20405 -20411 0
-20405 -20412 0
-20406 -20407 0
-20406 -20408 0
-20406 -20409 0
-20406 -20410 0
-20406 -20411 0
-20406 -20412 0
-20407 -20408 0
-20407 -20409 0
-20407 -20410 0
-20407 -20411 0
-20407 -20412 0
-20408 -20409 0
-20408 -20410 0
-20408 -20411 0
-20408 -20412 0
-20409 -20410 0
-20409 -20411 0
-20409 -20412 0
-20410 -20411 0
-20410 -20412 0
-20411 -20412 0
-30101 -30102 0
-30101 -30103 0
-30101 -30104 0
-30101 -30105 0
-30101 -30106 0
-30101 -30107 0
-30101 -30108 0
-30101 -30109 0
-30101 -30110 0
-30101 -30111 0
-30101 -30112 0
-30102 -30103 0
-30102 -30104 0
-30102 -30105 0
-30102 -30106 0
-30102 -30107 0
-30102 -30108 0
-30102 -30109 0
-30102 -30110 0
-30102 -30111 0
-30102 -30112 0
-30103 -30104 0
-30103 -30105 0
-30103 -30106 0
-30103 -30107 0
-30103 -30108 0
-30103 -30109 0
-30103 -30110 0
-30103 -30111 0
-30103 -30112 0
-30104 -30105 0
-30104 -30106 0
-30104 -30107 0
-30104 -30108 0
-30104 -30109 0
-30104 -30110 0
-30104 -30111 0
-30104 -30112 0
-30105 -30106 0
-30105 -30107 0
-30105 -30108 0
-30105 -30109 0
-30105 -30110 0
-30105 -30111 0
-30105 -30112 0
-30106 -30107 0
-30106 -30108 0
-30106 -30109 0
-30106 -30110 0
-30106 -30111 0
-30106 -30112 0
-30107 -30108 0
-30107 -30109 0
-30107 -30110 0
-30107 -30111 0
-30107 -30112 0
-30108 -30109 0
-30108 -30110 0
-30108 -30111 0
-30108 -30112 0
-30109 -30110 0
-30109 -30111 0
-30109 -30112 0
-30110 -30111 0
-30110 -30112 0
-30111 -30112 0
-30201 -30202 0
-30201 -30203 0
-30201 -30204 0
-30201 -30205 0
-30201 -30206 0
-30201 -30207 0
-30201 -30208 0
-30201 -30209 0
-30201 -30210 0
-30201 -30211 0
-30201 -30212 0
-30202 -30203 0
-30202 -30204 0
-30202 -30205 0
-30202 -30206 0
-30202 -30207 0
-30202 -30208 0
-30202 -30209 0
-30202 -30210 0
-30202 -30211 0
-30202 -30212 0
-30203 -30204 0
-30203 -30205 0
-30203 -30206 0
-30203 -30207 0
-30203 -30208 0
-30203 -30209 0
-30203 -30210 0
-30203 -30211 0
-30203 -30212 0
-30204 -30205 0
-30204 -30206 0
-30204 -30207 0
-30204 -30208 0
-30204 -30209 0
-30204 -30210 0
-30204 -30211 0
-30204 -30212 0
-30205 -30206 0
-30205 -30207 0
-30205 -30208 0
-30205 -30209 0
-30205 -30210 0
-30205 -30211 0
-30205 -30212 0
-30206 -30207 0
-30206 -30208 0
-30206 -30209 0
-30206 -30210 0
-30206 -30211 0
-30206 -30212 0
-30207 -30208 0
-30207 -30209 0
-30207 -30210 0
-30207 -30211 0
-30207 -30212 0
-30208 -30209 0
-30208 -30210 0
-30208 -30211 0
-30208 -30212 0
-30209 -30210 0
-30209 -30211 0
-30209 -30212 0
-30210 -30211 0
-30210 -30212 0
-30211 -30212 0
-30301 -30302 0
-30301 -30303 0
-30301 -30304 0
-30301 -30305 0
-30301 -30306 0
-30301 -30307 0
-30301 -30308 0
-30301 -30309 0
-30301 -30310 0
-30301 -30311 0
-30301 -30312 0
-30302 -30303 0
-30302 -30304 0
-30302 -30305 0
-30302 -30306 0
-30302 -30307 0
-30302 -30308 0
-30302 -30309 0
-30302 -30310 0
-30302 -30311 0
-30302 -30312 0
-30303 -30304 0
-30303 -30305 0
-30303 -30306 0
-30303 -30307 0
-30303 -30308 0
-30303 -30309 0
-30303 -30310 0
-30303 -30311 0
-30303 -30312 0
-30304 -30305 0
-30304 -30306 0
-30304 -30307 0
-30304 -30308 0
-30304 -30309 0
-30304 -30310 0
-30304 -30311 0
-30304 -30312 0
-30305 -30306 0
-30305 -30307 0
-30305 -30308 0
-30305 -30309 0
-30305 -30310 0
-30305 -30311 0
-30305 -30312 0
-30306 -30307 0
-30306 -30308 0
-30306 -30309 0
-30306 -30310 0
-30306 -30311 0
-30306 -30312 0
-30307 -30308 0
-30307 -30309 0
-30307 -30310 0
-30307 -30311 0
-30307 -30312 0
-30308 -30309 0
-30308 -30310 0
-30308 -30311 0
-30308 -30312 0
-30309 -30310 0
-30309 -30311 0
-30309 -30312 0
-30310 -30311 0
-30310 -30312 0
-30311 -30312 0
-30401 -30402 0
-30401 -30403 0
-30401 -30404 0
-30401 -30405 0
-30401 -30406 0
-30401 -30407 0
-30401 -30408 0
-30401 -30409 0
-30401 -30410 0
-30401 -30411 0
-30401 -30412 0
-30402 -30403 0
-30402 -30404 0
-30402 -30405 0
-30402 -30406 0
-30402 -30407 0
-30402 -30408 0
-30402 -30409 0
-30402 -30410 0
-30402 -30411 0
-30402 -30412 0
-30403 -30404 0
-30403 -30405 0
-30403 -30406 0
-30403 -30407 0
-30403 -30408 0
-30403 -30409 0
-30403 -30410 0
-30403 -30411 0
-30403 -30412 0
-30404 -30405 0
-30404 -30406 0
-30404 -30407 0
-30404 -30408 0
-30404 -30409 0
-30404 -30410 0
-30404 -30411 0
-30404 -30412 0
-30405 -30406 0
-30405 -30407 0
-30405 -30408 0
-30405 -30409 0
-30405 -30410 0
-30405 -30411 0
-30405 -30412 0
-30406 -30407 0
-30406 -30408 0
-30406 -30409 0
-30406 -30410 0
-30406 -30411 0
-30406 -30412 0
-30407 -30408 0
-30407 -30409 0
-30407 -30410 0
-30407 -30411 0
-30407 -30412 0
-30408 -30409 0
-30408 -30410 0
-30408 -30411 0
-30408 -30412 0
-30409 -30410 0
-30409 -30411 0
-30409 -30412 0
-30410 -30411 0
-30410 -30412 0
-30411 -30412 0
